p cnf 50 75
1 26 0
1 2 0
1 11 0
2 4 0
2 48 0
3 32 0
3 19 0
3 23 0
4 13 0
4 41 0
5 13 0
5 34 0
5 17 0
6 32 0
6 7 0
6 42 0
7 46 0
7 10 0
8 38 0
8 37 0
8 30 0
9 21 0
9 38 0
9 10 0
10 27 0
11 21 0
11 20 0
12 23 0
12 15 0
12 36 0
13 44 0
14 45 0
14 24 0
14 40 0
15 35 0
15 20 0
16 36 0
16 48 0
16 27 0
17 45 0
17 39 0
18 26 0
18 39 0
18 50 0
19 50 0
19 22 0
20 22 0
21 36 0
22 47 0
23 46 0
24 43 0
24 31 0
25 28 0
25 43 0
25 30 0
26 42 0
27 29 0
28 31 0
28 47 0
29 49 0
29 48 0
30 34 0
31 47 0
32 35 0
33 35 0
33 49 0
33 37 0
34 44 0
37 50 0
38 46 0
39 43 0
40 44 0
40 41 0
41 42 0
45 49 0
